p cnf 90 302
-1 2 -3 0
1 -2 -3 0
-1 -2 3 0
1 2 3 0
-6 -4 0
-6 5 0
4 -5 6 0
9 -7 0
9 -8 0
7 8 -9 0
10 -6 0
10 9 0
6 -9 -10 0
-12 10 0
-12 11 0
-10 -11 12 0
13 -3 0
13 12 0
3 -12 -13 0
-15 -5 0
-15 14 0
5 -14 15 0
16 13 0
16 15 0
-13 -15 -16 0
18 14 0
18 -17 0
-14 17 -18 0
19 9 0
19 5 0
-9 -5 -19 0
19 -4 -20 0
-19 4 -20 0
19 4 20 0
-19 -4 20 0
-7 20 -21 0
7 -20 -21 0
-7 -20 21 0
7 20 21 0
22 -9 0
22 -4 0
9 4 -22 0
-21 22 -23 0
21 -22 -23 0
-21 -22 23 0
21 22 23 0
24 18 0
24 23 0
-18 -23 -24 0
25 20 0
25 -9 0
-20 9 -25 0
26 -24 0
26 25 0
24 -25 -26 0
-27 16 0
-27 -26 0
-16 26 27 0
29 11 0
29 14 0
-11 -14 -29 0
-7 29 -30 0
7 -29 -30 0
-7 -29 30 0
7 29 30 0
-31 -28 0
-31 30 0
28 -30 31 0
32 27 0
32 31 0
-27 -31 -32 0
-33 6 0
-33 -9 0
-6 9 33 0
-34 -8 0
-34 -33 0
8 33 34 0
-36 -35 0
-36 -1 0
35 1 36 0
38 -37 0
38 -37 0
37 -38 0
-39 36 0
-39 -38 0
-36 38 39 0
33 -39 -40 0
-33 39 -40 0
33 39 40 0
-33 -39 40 0
-41 34 0
-41 -40 0
-34 40 41 0
32 41 -42 0
-32 -41 -42 0
32 -41 42 0
-32 41 42 0
-5 -17 -43 0
5 17 -43 0
-5 17 43 0
5 -17 43 0
44 43 0
44 -33 0
-43 33 -44 0
-45 -33 0
-45 -44 0
33 44 45 0
46 -19 0
46 -29 0
19 29 -46 0
-45 -46 -47 0
45 46 -47 0
-45 46 47 0
45 -46 47 0
48 30 0
48 -43 0
-30 43 -48 0
47 48 -49 0
-47 -48 -49 0
47 -48 49 0
-47 48 49 0
38 11 -50 0
-38 -11 -50 0
38 -11 50 0
-38 11 50 0
51 -19 0
51 14 0
19 -14 -51 0
52 -51 0
52 -1 0
51 1 -52 0
52 -33 -53 0
-52 33 -53 0
52 33 53 0
-52 -33 53 0
54 -10 0
54 -39 0
10 39 -54 0
-55 28 0
-55 54 0
-28 -54 55 0
-56 55 0
-56 -33 0
-55 33 56 0
57 -53 0
57 56 0
53 -56 -57 0
-44 -20 -58 0
44 20 -58 0
-44 20 58 0
44 -20 58 0
-59 -57 0
-59 58 0
57 -58 59 0
50 59 -60 0
-50 -59 -60 0
50 -59 60 0
-50 59 60 0
61 -53 0
61 -21 0
53 21 -61 0
62 -60 0
62 -61 0
60 61 -62 0
-37 39 -63 0
37 -39 -63 0
-37 -39 63 0
37 39 63 0
65 -63 0
65 64 0
63 -64 -65 0
66 -28 0
66 4 0
28 -4 -66 0
-66 -5 -67 0
66 5 -67 0
-66 5 67 0
66 -5 67 0
-68 65 0
-68 67 0
-65 -67 68 0
62 -68 -69 0
-62 68 -69 0
62 68 69 0
-62 -68 69 0
35 -14 -70 0
-35 14 -70 0
35 14 70 0
-35 -14 70 0
-71 21 0
-71 70 0
-21 -70 71 0
14 -37 -72 0
-14 37 -72 0
14 37 72 0
-14 -37 72 0
-73 -71 0
-73 72 0
71 -72 73 0
74 66 0
74 -17 0
-66 17 -74 0
75 -36 0
75 -74 0
36 74 -75 0
76 35 0
76 75 0
-35 -75 -76 0
-77 -73 0
-77 76 0
73 -76 77 0
55 10 -78 0
-55 -10 -78 0
55 -10 78 0
-55 10 78 0
-79 5 0
-79 8 0
-5 -8 79 0
2 66 -81 0
-2 -66 -81 0
2 -66 81 0
-2 66 81 0
-82 -80 0
-82 -81 0
80 81 82 0
-83 -79 0
-83 82 0
79 -82 83 0
84 -78 0
84 83 0
78 -83 -84 0
85 77 0
85 -84 0
-77 84 -85 0
-69 -85 -86 0
69 85 -86 0
-69 85 86 0
69 -85 86 0
87 49 0
87 -86 0
-49 86 -87 0
42 -87 -88 0
-42 87 -88 0
42 87 88 0
-42 -87 88 0
89 -39 0
89 55 0
39 -55 -89 0
90 88 0
90 -89 0
-88 89 -90 0
-19 -65 -48 -21 5 36 0
-14 -45 0
51 -55 43 -83 56 0
52 74 67 -50 0
-48 78 0
-47 61 -68 -11 -36 39 0
86 80 0
-56 58 30 0
71 -43 0
50 -89 5 -26 39 0
-65 -43 0
23 60 -72 -59 19 0
-47 69 0
-60 79 37 69 -80 19 0
81 -54 -77 -43 -27 76 0
-78 -41 7 83 -46 0
-87 3 -38 -9 0
-60 38 -87 0
53 -62 0
85 61 2 -6 0
71 -75 43 -74 68 0
-46 -6 0
-7 39 -59 72 -18 0
-80 23 -27 15 -55 -43 0
19 72 -38 -10 -89 0
83 18 -49 -81 -54 -70 0
-73 -71 -68 80 0
5 -77 -43 -64 0
-62 37 51 -47 0
3 41 -79 -24 0
-56 26 0
-64 7 -77 48 84 0
30 71 0
68 31 0
-53 -62 -4 0
66 -82 -40 0
72 -35 25 -16 0
61 4 -19 -41 0
-12 9 85 71 0
-7 -54 0
-77 -65 21 0
-70 17 0
-47 5 60 19 -20 0
68 57 17 13 24 -4 0
21 13 0
-8 -84 -7 -79 0
20 58 9 16 22 31 0
-76 52 0
30 42 64 -41 0
32 -67 9 77 -89 -63 0
90 0
